proyfinal/src/viki/013/andrea/andrea-localstore/experimentInOfficeAgust.take6/worker_9/eb5e6f46-690f-4516-98f4-63ef624e2dc9.als.cnf.out
Reading from standard input... Use '--help' for help.
============================[ Problem Statistics ]=============================
|                                                                             |
|  Number of variables:         87638                                         |
|  Number of clauses:          161767                                         |
|  Parse time:                   0.03 s                                       |
|                                                                             |
============================[ Search Statistics ]==============================
| Conflicts |          ORIGINAL         |          LEARNT          | Progress |
|           |    Vars  Clauses Literals |    Limit  Clauses Lit/Cl |          |
===============================================================================
|       100 |   66493   120269   299301 |    44098      100     14 | 24.128 % |
|       250 |   66493   120269   299301 |    48508      250     35 | 24.128 % |
|       475 |   66493   120269   299301 |    53359      475     44 | 24.128 % |
|       812 |   66490   120254   299265 |    58695      809     43 | 24.131 % |
|      1318 |   66490   120254   299265 |    64564     1315    115 | 24.131 % |
|      2077 |   66489   120210   299175 |    71021     2073     96 | 24.132 % |
|      3216 |   66489   120210   299175 |    78123     3212     89 | 24.132 % |
|      4924 |   66489   120210   299175 |    85935     4920     90 | 24.132 % |
|      7486 |   66489   120210   299175 |    94529     7482     85 | 24.132 % |
|     11330 |   66488   120205   299163 |   103982    11325     87 | 24.133 % |
|     17096 |   61542   102567   256002 |   114380    15981     99 | 29.777 % |
===============================================================================
restarts              : 67
conflicts             : 19715          (7455 /sec)
decisions             : 102909         (0.00 % random) (38912 /sec)
propagations          : 30448009       (11512967 /sec)
conflict literals     : 1808778        (36.23 % deleted)
Memory used           : 41.66 MB
CPU time              : 2.64467 s

INDETERMINATE
